Problem:    OrdiniAltroMetodo
Rows:       222
Columns:    131 (100 integer, 100 binary)
Non-zeros:  531
Status:     INTEGER OPTIMAL
Objective:  z1 = 73 (MINimum)

   No.   Row name        Activity     Lower bound   Upper bound
------ ------------    ------------- ------------- -------------
     1 noDiag[1]                   0            -0             = 
     2 noDiag[2]                   0            -0             = 
     3 noDiag[3]                   0            -0             = 
     4 noDiag[4]                   0            -0             = 
     5 noDiag[5]                   0            -0             = 
     6 noDiag[6]                   0            -0             = 
     7 noDiag[7]                   0            -0             = 
     8 noDiag[8]                   0            -0             = 
     9 noDiag[9]                   0            -0             = 
    10 noDiag[10]                  0            -0             = 
    11 Preced[1,2]                 1             1             = 
    12 Preced[1,3]                 1             1             = 
    13 Preced[1,4]                 1             1             = 
    14 Preced[1,5]                 1             1             = 
    15 Preced[1,6]                 1             1             = 
    16 Preced[1,7]                 1             1             = 
    17 Preced[1,8]                 1             1             = 
    18 Preced[1,9]                 1             1             = 
    19 Preced[1,10]                1             1             = 
    20 Preced[2,1]                 1             1             = 
    21 Preced[2,3]                 1             1             = 
    22 Preced[2,4]                 1             1             = 
    23 Preced[2,5]                 1             1             = 
    24 Preced[2,6]                 1             1             = 
    25 Preced[2,7]                 1             1             = 
    26 Preced[2,8]                 1             1             = 
    27 Preced[2,9]                 1             1             = 
    28 Preced[2,10]                1             1             = 
    29 Preced[3,1]                 1             1             = 
    30 Preced[3,2]                 1             1             = 
    31 Preced[3,4]                 1             1             = 
    32 Preced[3,5]                 1             1             = 
    33 Preced[3,6]                 1             1             = 
    34 Preced[3,7]                 1             1             = 
    35 Preced[3,8]                 1             1             = 
    36 Preced[3,9]                 1             1             = 
    37 Preced[3,10]                1             1             = 
    38 Preced[4,1]                 1             1             = 
    39 Preced[4,2]                 1             1             = 
    40 Preced[4,3]                 1             1             = 
    41 Preced[4,5]                 1             1             = 
    42 Preced[4,6]                 1             1             = 
    43 Preced[4,7]                 1             1             = 
    44 Preced[4,8]                 1             1             = 
    45 Preced[4,9]                 1             1             = 
    46 Preced[4,10]                1             1             = 
    47 Preced[5,1]                 1             1             = 
    48 Preced[5,2]                 1             1             = 
    49 Preced[5,3]                 1             1             = 
    50 Preced[5,4]                 1             1             = 
    51 Preced[5,6]                 1             1             = 
    52 Preced[5,7]                 1             1             = 
    53 Preced[5,8]                 1             1             = 
    54 Preced[5,9]                 1             1             = 
    55 Preced[5,10]                1             1             = 
    56 Preced[6,1]                 1             1             = 
    57 Preced[6,2]                 1             1             = 
    58 Preced[6,3]                 1             1             = 
    59 Preced[6,4]                 1             1             = 
    60 Preced[6,5]                 1             1             = 
    61 Preced[6,7]                 1             1             = 
    62 Preced[6,8]                 1             1             = 
    63 Preced[6,9]                 1             1             = 
    64 Preced[6,10]                1             1             = 
    65 Preced[7,1]                 1             1             = 
    66 Preced[7,2]                 1             1             = 
    67 Preced[7,3]                 1             1             = 
    68 Preced[7,4]                 1             1             = 
    69 Preced[7,5]                 1             1             = 
    70 Preced[7,6]                 1             1             = 
    71 Preced[7,8]                 1             1             = 
    72 Preced[7,9]                 1             1             = 
    73 Preced[7,10]                1             1             = 
    74 Preced[8,1]                 1             1             = 
    75 Preced[8,2]                 1             1             = 
    76 Preced[8,3]                 1             1             = 
    77 Preced[8,4]                 1             1             = 
    78 Preced[8,5]                 1             1             = 
    79 Preced[8,6]                 1             1             = 
    80 Preced[8,7]                 1             1             = 
    81 Preced[8,9]                 1             1             = 
    82 Preced[8,10]                1             1             = 
    83 Preced[9,1]                 1             1             = 
    84 Preced[9,2]                 1             1             = 
    85 Preced[9,3]                 1             1             = 
    86 Preced[9,4]                 1             1             = 
    87 Preced[9,5]                 1             1             = 
    88 Preced[9,6]                 1             1             = 
    89 Preced[9,7]                 1             1             = 
    90 Preced[9,8]                 1             1             = 
    91 Preced[9,10]                1             1             = 
    92 Preced[10,1]                1             1             = 
    93 Preced[10,2]                1             1             = 
    94 Preced[10,3]                1             1             = 
    95 Preced[10,4]                1             1             = 
    96 Preced[10,5]                1             1             = 
    97 Preced[10,6]                1             1             = 
    98 Preced[10,7]                1             1             = 
    99 Preced[10,8]                1             1             = 
   100 Preced[10,9]                1             1             = 
   101 Disj[1,2]                 -42                         -24 
   102 Disj[1,3]                -113                         -24 
   103 Disj[1,4]                 -54                         -24 
   104 Disj[1,5]                 -24                         -24 
   105 Disj[1,6]                 -69                         -24 
   106 Disj[1,7]                 -91                         -24 
   107 Disj[1,8]                 -76                         -24 
   108 Disj[1,9]                 -99                         -24 
   109 Disj[1,10]               -143                         -24 
   110 Disj[2,1]               -9957                         -12 
   111 Disj[2,3]                 -71                         -12 
   112 Disj[2,4]                 -12                         -12 
   113 Disj[2,5]               -9981                         -12 
   114 Disj[2,6]                 -27                         -12 
   115 Disj[2,7]                 -49                         -12 
   116 Disj[2,8]                 -34                         -12 
   117 Disj[2,9]                 -57                         -12 
   118 Disj[2,10]               -101                         -12 
   119 Disj[3,1]               -9886                         -30 
   120 Disj[3,2]               -9928                         -30 
   121 Disj[3,4]               -9940                         -30 
   122 Disj[3,5]               -9910                         -30 
   123 Disj[3,6]               -9955                         -30 
   124 Disj[3,7]               -9977                         -30 
   125 Disj[3,8]               -9962                         -30 
   126 Disj[3,9]               -9985                         -30 
   127 Disj[3,10]                -30                         -30 
   128 Disj[4,1]               -9945                         -15 
   129 Disj[4,2]               -9987                         -15 
   130 Disj[4,3]                 -59                         -15 
   131 Disj[4,5]               -9969                         -15 
   132 Disj[4,6]                 -15                         -15 
   133 Disj[4,7]                 -37                         -15 
   134 Disj[4,8]                 -22                         -15 
   135 Disj[4,9]                 -45                         -15 
   136 Disj[4,10]                -89                         -15 
   137 Disj[5,1]               -9975                         -18 
   138 Disj[5,2]                 -18                         -18 
   139 Disj[5,3]                 -89                         -18 
   140 Disj[5,4]                 -30                         -18 
   141 Disj[5,6]                 -45                         -18 
   142 Disj[5,7]                 -67                         -18 
   143 Disj[5,8]                 -52                         -18 
   144 Disj[5,9]                 -75                         -18 
   145 Disj[5,10]               -119                         -18 
   146 Disj[6,1]               -9930                          -7 
   147 Disj[6,2]               -9972                          -7 
   148 Disj[6,3]                 -44                          -7 
   149 Disj[6,4]               -9984                          -7 
   150 Disj[6,5]               -9954                          -7 
   151 Disj[6,7]                 -22                          -7 
   152 Disj[6,8]                  -7                          -7 
   153 Disj[6,9]                 -30                          -7 
   154 Disj[6,10]                -74                          -7 
   155 Disj[7,1]               -9908                          -8 
   156 Disj[7,2]               -9950                          -8 
   157 Disj[7,3]                 -22                          -8 
   158 Disj[7,4]               -9962                          -8 
   159 Disj[7,5]               -9932                          -8 
   160 Disj[7,6]               -9977                          -8 
   161 Disj[7,8]               -9984                          -8 
   162 Disj[7,9]                  -8                          -8 
   163 Disj[7,10]                -52                          -8 
   164 Disj[8,1]               -9923                         -15 
   165 Disj[8,2]               -9965                         -15 
   166 Disj[8,3]                 -37                         -15 
   167 Disj[8,4]               -9977                         -15 
   168 Disj[8,5]               -9947                         -15 
   169 Disj[8,6]               -9992                         -15 
   170 Disj[8,7]                 -15                         -15 
   171 Disj[8,9]                 -23                         -15 
   172 Disj[8,10]                -67                         -15 
   173 Disj[9,1]               -9900                         -14 
   174 Disj[9,2]               -9942                         -14 
   175 Disj[9,3]                 -14                         -14 
   176 Disj[9,4]               -9954                         -14 
   177 Disj[9,5]               -9924                         -14 
   178 Disj[9,6]               -9969                         -14 
   179 Disj[9,7]               -9991                         -14 
   180 Disj[9,8]               -9976                         -14 
   181 Disj[9,10]                -44                         -14 
   182 Disj[10,1]              -9856                         -22 
   183 Disj[10,2]              -9898                         -22 
   184 Disj[10,3]              -9969                         -22 
   185 Disj[10,4]              -9910                         -22 
   186 Disj[10,5]              -9880                         -22 
   187 Disj[10,6]              -9925                         -22 
   188 Disj[10,7]              -9947                         -22 
   189 Disj[10,8]              -9932                         -22 
   190 Disj[10,9]              -9955                         -22 
   191 Completion[1]
                                  24            24             = 
   192 Completion[2]
                                  12            12             = 
   193 Completion[3]
                                  30            30             = 
   194 Completion[4]
                                  15            15             = 
   195 Completion[5]
                                  18            18             = 
   196 Completion[6]
                                   7             7             = 
   197 Completion[7]
                                   8             8             = 
   198 Completion[8]
                                  15            15             = 
   199 Completion[9]
                                  14            14             = 
   200 Completion[10]
                                  22            22             = 
   201 Tardiness[1]              -24           -50               
   202 Tardiness[2]              -50           -50               
   203 Tardiness[3]              -90           -90               
   204 Tardiness[4]              -69           -70               
   205 Tardiness[5]              -42           -50               
   206 Tardiness[6]              -76           -80               
   207 Tardiness[7]              -99          -100               
   208 Tardiness[8]              -90           -90               
   209 Tardiness[9]             -113          -120               
   210 Tardiness[10]
                                -150          -150               
   211 z1                         73                             
   212 z2                         53                             
   213 MaxTardiness[1]
                                  53            -0               
   214 MaxTardiness[2]
                                  49            -0               
   215 MaxTardiness[3]
                                   0            -0               
   216 MaxTardiness[4]
                                  53            -0               
   217 MaxTardiness[5]
                                  53            -0               
   218 MaxTardiness[6]
                                  53            -0               
   219 MaxTardiness[7]
                                  53            -0               
   220 MaxTardiness[8]
                                  52            -0               
   221 MaxTardiness[9]
                                  53            -0               
   222 MaxTardiness[10]
                                  38            -0               

   No. Column name       Activity     Lower bound   Upper bound
------ ------------    ------------- ------------- -------------
     1 x[1,1]       *              0             0             1 
     2 x[2,2]       *              0             0             1 
     3 x[3,3]       *              0             0             1 
     4 x[4,4]       *              0             0             1 
     5 x[5,5]       *              0             0             1 
     6 x[6,6]       *              0             0             1 
     7 x[7,7]       *              0             0             1 
     8 x[8,8]       *              0             0             1 
     9 x[9,9]       *              0             0             1 
    10 x[10,10]     *              0             0             1 
    11 x[2,1]       *              0             0             1 
    12 x[1,2]       *              1             0             1 
    13 x[3,1]       *              0             0             1 
    14 x[1,3]       *              1             0             1 
    15 x[4,1]       *              0             0             1 
    16 x[1,4]       *              1             0             1 
    17 x[5,1]       *              0             0             1 
    18 x[1,5]       *              1             0             1 
    19 x[6,1]       *              0             0             1 
    20 x[1,6]       *              1             0             1 
    21 x[7,1]       *              0             0             1 
    22 x[1,7]       *              1             0             1 
    23 x[8,1]       *              0             0             1 
    24 x[1,8]       *              1             0             1 
    25 x[9,1]       *              0             0             1 
    26 x[1,9]       *              1             0             1 
    27 x[10,1]      *              0             0             1 
    28 x[1,10]      *              1             0             1 
    29 x[3,2]       *              0             0             1 
    30 x[2,3]       *              1             0             1 
    31 x[4,2]       *              0             0             1 
    32 x[2,4]       *              1             0             1 
    33 x[5,2]       *              1             0             1 
    34 x[2,5]       *              0             0             1 
    35 x[6,2]       *              0             0             1 
    36 x[2,6]       *              1             0             1 
    37 x[7,2]       *              0             0             1 
    38 x[2,7]       *              1             0             1 
    39 x[8,2]       *              0             0             1 
    40 x[2,8]       *              1             0             1 
    41 x[9,2]       *              0             0             1 
    42 x[2,9]       *              1             0             1 
    43 x[10,2]      *              0             0             1 
    44 x[2,10]      *              1             0             1 
    45 x[4,3]       *              1             0             1 
    46 x[3,4]       *              0             0             1 
    47 x[5,3]       *              1             0             1 
    48 x[3,5]       *              0             0             1 
    49 x[6,3]       *              1             0             1 
    50 x[3,6]       *              0             0             1 
    51 x[7,3]       *              1             0             1 
    52 x[3,7]       *              0             0             1 
    53 x[8,3]       *              1             0             1 
    54 x[3,8]       *              0             0             1 
    55 x[9,3]       *              1             0             1 
    56 x[3,9]       *              0             0             1 
    57 x[10,3]      *              0             0             1 
    58 x[3,10]      *              1             0             1 
    59 x[5,4]       *              1             0             1 
    60 x[4,5]       *              0             0             1 
    61 x[6,4]       *              0             0             1 
    62 x[4,6]       *              1             0             1 
    63 x[7,4]       *              0             0             1 
    64 x[4,7]       *              1             0             1 
    65 x[8,4]       *              0             0             1 
    66 x[4,8]       *              1             0             1 
    67 x[9,4]       *              0             0             1 
    68 x[4,9]       *              1             0             1 
    69 x[10,4]      *              0             0             1 
    70 x[4,10]      *              1             0             1 
    71 x[6,5]       *              0             0             1 
    72 x[5,6]       *              1             0             1 
    73 x[7,5]       *              0             0             1 
    74 x[5,7]       *              1             0             1 
    75 x[8,5]       *              0             0             1 
    76 x[5,8]       *              1             0             1 
    77 x[9,5]       *              0             0             1 
    78 x[5,9]       *              1             0             1 
    79 x[10,5]      *              0             0             1 
    80 x[5,10]      *              1             0             1 
    81 x[7,6]       *              0             0             1 
    82 x[6,7]       *              1             0             1 
    83 x[8,6]       *              0             0             1 
    84 x[6,8]       *              1             0             1 
    85 x[9,6]       *              0             0             1 
    86 x[6,9]       *              1             0             1 
    87 x[10,6]      *              0             0             1 
    88 x[6,10]      *              1             0             1 
    89 x[8,7]       *              1             0             1 
    90 x[7,8]       *              0             0             1 
    91 x[9,7]       *              0             0             1 
    92 x[7,9]       *              1             0             1 
    93 x[10,7]      *              0             0             1 
    94 x[7,10]      *              1             0             1 
    95 x[9,8]       *              0             0             1 
    96 x[8,9]       *              1             0             1 
    97 x[10,8]      *              0             0             1 
    98 x[8,10]      *              1             0             1 
    99 x[10,9]      *              0             0             1 
   100 x[9,10]      *              1             0             1 
   101 c[1]                       24                             
   102 c[2]                       54                             
   103 c[3]                      143                             
   104 c[4]                       69                             
   105 c[5]                       42                             
   106 c[6]                       76                             
   107 c[7]                       99                             
   108 c[8]                       91                             
   109 c[9]                      113                             
   110 c[10]                     165                             
   111 tard[1]                     0             0               
   112 tard[2]                     4             0               
   113 tard[3]                    53             0               
   114 tard[4]                     0             0               
   115 tard[5]                     0             0               
   116 tard[6]                     0             0               
   117 tard[7]                     0             0               
   118 tard[8]                     1             0               
   119 tard[9]                     0             0               
   120 tard[10]                   15             0               
   121 TMAX                       53             0               
   122 t[1]                        0             0               
   123 t[2]                       42             0               
   124 t[3]                      113             0               
   125 t[4]                       54             0               
   126 t[5]                       24             0               
   127 t[6]                       69             0               
   128 t[7]                       91             0               
   129 t[8]                       76             0               
   130 t[9]                       99             0               
   131 t[10]                     143             0               

Integer feasibility conditions:

KKT.PE: max.abs.err = 0.00e+000 on row 0
        max.rel.err = 0.00e+000 on row 0
        High quality

KKT.PB: max.abs.err = 0.00e+000 on row 0
        max.rel.err = 0.00e+000 on row 0
        High quality

End of output
